0 58 38 11 53 0
0 4 0
0 25 55 18 50 0
0 7 14 59 19 0
0 16 49 56 23 0
0 35 8 46 34 0
0 30 48 45 27 0
0 33 43 41 42 0
0 51 3 44 32 0
0 10 39 9 40 0
0 17 12 26 0
0 52 54 13 57 0
0 6 22 28 2 0
0 21 36 47 29 0
0 15 20 37 5 0
